words_hard_train/3200.qaiger
aag 103 24 0 1 79
2
4
12
16
18
26
38
40
48
60
62
70
82
84
92
104
106
114
126
128
136
148
150
158
207
6 3 5
8 2 4
10 7 9
14 10 12
20 16 19
22 17 18
24 21 23
28 24 27
30 25 26
32 29 31
34 14 32
36 35 31
42 38 41
44 39 40
46 43 45
50 46 49
52 47 48
54 51 53
56 37 54
58 57 53
64 60 63
66 61 62
68 65 67
72 68 71
74 69 70
76 73 75
78 59 76
80 79 75
86 82 85
88 83 84
90 87 89
94 90 93
96 91 92
98 95 97
100 81 98
102 101 97
108 104 107
110 105 106
112 109 111
116 112 115
118 113 114
120 117 119
122 103 120
124 123 119
130 126 129
132 127 128
134 131 133
138 134 137
140 135 136
142 139 141
144 125 142
146 145 141
152 149 150
154 148 151
156 153 155
160 156 159
162 157 158
164 161 163
166 147 164
168 146 165
170 167 169
172 124 143
174 15 33
176 175 35
178 36 55
180 179 57
182 176 180
184 80 99
186 185 101
188 183 187
190 58 77
192 191 79
194 188 193
196 102 121
198 197 123
200 194 199
202 173 201
204 202 145
206 171 204
i0 1 x2[0]
i1 1 x1[0]
i2 2 y1[0]
i3 1 x2[1]
i4 1 x1[1]
i5 2 y1[1]
i6 1 x2[2]
i7 1 x1[2]
i8 2 y1[2]
i9 1 x2[3]
i10 1 x1[3]
i11 2 y1[3]
i12 1 x2[4]
i13 1 x1[4]
i14 2 y1[4]
i15 1 x2[5]
i16 1 x1[5]
i17 2 y1[5]
i18 1 x2[6]
i19 1 x1[6]
i20 2 y1[6]
i21 2 y1[7]
i22 1 x2[7]
i23 1 x1[7]
o0 bv[0]
c
simplified
  <
    add
      2 y1
      xor
        1 x1
        1 x2
    reverse
      98
