words_hard_train/3200.qaiger.qdimacs
p cnf 103 238
a 64 1 2 8 9 41 42 75 79 19 20 52 53 63 30 31 0
e 3 4 5 6 7 10 11 12 13 14 15 16 17 18 21 22 23 24 25 26 27 28 29 32 33 34 35 36 37 38 39 40 43 44 45 46 47 48 49 50 51 54 55 56 57 58 59 60 61 62 65 66 67 68 69 70 71 72 73 74 76 77 78 80 81 82 83 84 85 86 87 88 89 90 91 92 93 94 95 96 97 98 99 100 101 102 103 0
1 2 3 0
-1 -3 0
-2 -3 0
-1 -2 4 0
1 -4 0
2 -4 0
3 4 5 0
-3 -5 0
-4 -5 0
-5 -6 7 0
5 -7 0
6 -7 0
-8 9 10 0
8 -10 0
-9 -10 0
8 -9 11 0
-8 -11 0
9 -11 0
10 11 12 0
-10 -12 0
-11 -12 0
-12 13 14 0
12 -14 0
-13 -14 0
12 -13 15 0
-12 -15 0
13 -15 0
14 15 16 0
-14 -16 0
-15 -16 0
-7 -16 17 0
7 -17 0
16 -17 0
17 15 18 0
-17 -18 0
-15 -18 0
-19 20 21 0
19 -21 0
-20 -21 0
19 -20 22 0
-19 -22 0
20 -22 0
21 22 23 0
-21 -23 0
-22 -23 0
-23 24 25 0
23 -25 0
-24 -25 0
23 -24 26 0
-23 -26 0
24 -26 0
25 26 27 0
-25 -27 0
-26 -27 0
18 -27 28 0
-18 -28 0
27 -28 0
28 26 29 0
-28 -29 0
-26 -29 0
-30 31 32 0
30 -32 0
-31 -32 0
30 -31 33 0
-30 -33 0
31 -33 0
32 33 34 0
-32 -34 0
-33 -34 0
-34 35 36 0
34 -36 0
-35 -36 0
34 -35 37 0
-34 -37 0
35 -37 0
36 37 38 0
-36 -38 0
-37 -38 0
29 -38 39 0
-29 -39 0
38 -39 0
39 37 40 0
-39 -40 0
-37 -40 0
-41 42 43 0
41 -43 0
-42 -43 0
41 -42 44 0
-41 -44 0
42 -44 0
43 44 45 0
-43 -45 0
-44 -45 0
-45 46 47 0
45 -47 0
-46 -47 0
45 -46 48 0
-45 -48 0
46 -48 0
47 48 49 0
-47 -49 0
-48 -49 0
40 -49 50 0
-40 -50 0
49 -50 0
50 48 51 0
-50 -51 0
-48 -51 0
-52 53 54 0
52 -54 0
-53 -54 0
52 -53 55 0
-52 -55 0
53 -55 0
54 55 56 0
-54 -56 0
-55 -56 0
-56 57 58 0
56 -58 0
-57 -58 0
56 -57 59 0
-56 -59 0
57 -59 0
58 59 60 0
-58 -60 0
-59 -60 0
51 -60 61 0
-51 -61 0
60 -61 0
61 59 62 0
-61 -62 0
-59 -62 0
-63 64 65 0
63 -65 0
-64 -65 0
63 -64 66 0
-63 -66 0
64 -66 0
65 66 67 0
-65 -67 0
-66 -67 0
-67 68 69 0
67 -69 0
-68 -69 0
67 -68 70 0
-67 -70 0
68 -70 0
69 70 71 0
-69 -71 0
-70 -71 0
62 -71 72 0
-62 -72 0
71 -72 0
72 70 73 0
-72 -73 0
-70 -73 0
74 -75 76 0
-74 -76 0
75 -76 0
-74 75 77 0
74 -77 0
-75 -77 0
76 77 78 0
-76 -78 0
-77 -78 0
-78 79 80 0
78 -80 0
-79 -80 0
78 -79 81 0
-78 -81 0
79 -81 0
80 81 82 0
-80 -82 0
-81 -82 0
73 -82 83 0
-73 -83 0
82 -83 0
-73 82 84 0
73 -84 0
-82 -84 0
83 84 85 0
-83 -85 0
-84 -85 0
-62 71 86 0
62 -86 0
-71 -86 0
7 16 87 0
-7 -87 0
-16 -87 0
87 17 88 0
-87 -88 0
-17 -88 0
-18 27 89 0
18 -89 0
-27 -89 0
89 28 90 0
-89 -90 0
-28 -90 0
-88 -90 91 0
88 -91 0
90 -91 0
-40 49 92 0
40 -92 0
-49 -92 0
92 50 93 0
-92 -93 0
-50 -93 0
91 93 94 0
-91 -94 0
-93 -94 0
-29 38 95 0
29 -95 0
-38 -95 0
95 39 96 0
-95 -96 0
-39 -96 0
-94 96 97 0
94 -97 0
-96 -97 0
-51 60 98 0
51 -98 0
-60 -98 0
98 61 99 0
-98 -99 0
-61 -99 0
-97 99 100 0
97 -100 0
-99 -100 0
86 100 101 0
-86 -101 0
-100 -101 0
-101 72 102 0
101 -102 0
-72 -102 0
85 -102 103 0
-85 -103 0
102 -103 0
-103 0
